Maximize
  - 2.8344998110464 edge_0_1_0_0 - 2.8838467412495 edge_0_2_0_0
   - 2.170641303076 edge_0_3_0_0 - 2.3803114856816 edge_0_4_0_0
   - 2.0480398771228 edge_0_5_0_0 - 1.0392115020456 edge_0_6_0_0
   - 2.90909274084 edge_0_7_0_0 - 2.0815919695773 edge_0_8_0_0
   - 3.2008629657884 edge_0_10_0_0 - 2.6708088626806 edge_0_11_0_0
   - 3.5805897980311 edge_0_12_0_0 + 0.4860264520926265 edge_1_2_0_0
   + 0.4666457463616741 edge_1_3_0_0 + 0.2980831116919293 edge_1_4_0_0
   - 0.5697887901546096 edge_1_5_0_0 - 0.1388112049348864 edge_1_6_0_0
   - 0.2296238253392373 edge_1_7_0_0 - 0.5412987546870162 edge_1_8_0_0
   - 0.4653635533633055 edge_1_10_0_0 - 0.786881948360643 edge_1_11_0_0
   - 0.5046181029742323 edge_1_12_0_0 + 3.675095231663391 edge_2_1_0_0
   + 1.043695126935574 edge_2_3_0_0 + 3.674950087369429 edge_2_4_0_0
   + 0.6644605664618456 edge_2_5_0_0 - 0.0528464950727665 edge_2_6_0_0
   + 2.512876378820883 edge_2_7_0_0 + 1.52420673819234 edge_2_8_0_0
   + 1.500464337822182 edge_2_10_0_0 + 0.9233367074533017 edge_2_11_0_0
   + 2.6411170155344 edge_2_12_0_0 + 1.632953505019696 edge_3_1_0_0
   - 0.3644116934678756 edge_3_2_0_0 + 0.7049613080997545 edge_3_4_0_0
   + 0.1232532806222694 edge_3_5_0_0 + 0.526959344323559 edge_3_6_0_0
   + 1.111389907442876 edge_3_7_0_0 + 0.5057328613916376 edge_3_8_0_0
   + 0.4673306057952669 edge_3_10_0_0 + 0.4213692655209533 edge_3_11_0_0
   + 0.7344421288894749 edge_3_12_0_0 + 2.432087980573226 edge_4_1_0_0
   + 1.947541859916311 edge_4_2_0_0 + 2.984104933887054 edge_4_3_0_0
   + 0.4796171994819659 edge_4_5_0_0 + 1.141421852417763 edge_4_6_0_0
   + 1.273222592341849 edge_4_7_0_0 + 1.454606344447908 edge_4_8_0_0
   + 1.928909476945184 edge_4_10_0_0 + 1.590706197471013 edge_4_11_0_0
   + 0.9582207093117245 edge_4_12_0_0 + 0.525699147413987 edge_5_2_0_0
   + 0.2069678807066207 edge_5_3_0_0 + 0.1486427928451761 edge_5_4_0_0
   + 0.345871685107631 edge_5_6_0_0 + 0.1760376342390902 edge_5_7_0_0
   + 0.8666692003117777 edge_5_8_0_0 + 0.4626767423341033 edge_5_10_0_0
   + 0.174261312544671 edge_5_11_0_0 - 0.1813273544712735 edge_5_12_0_0
   + 0.4183481966138626 edge_6_1_0_0 + 0.1011772104323112 edge_6_2_0_0
   + 1.293663756029195 edge_6_3_0_0 + 2.353070973408175 edge_6_4_0_0
   + 0.2791266070129009 edge_6_5_0_0 + 1.713109644333531 edge_6_7_0_0
   + 0.9740996508317465 edge_6_8_0_0 + 0.9016897040970099 edge_6_10_0_0
   + 0.5524298695766774 edge_6_11_0_0 + 0.9329595810192701 edge_6_12_0_0
   - 0.9711812705755575 edge_7_1_0_0 - 0.9448014320297655 edge_7_2_0_0
   - 1.145340039048293 edge_7_3_0_0 - 0.9158582341824417 edge_7_4_0_0
   + 0.1130542299984496 edge_7_5_0_0 - 0.1506153691675022 edge_7_6_0_0
   + 0.1931968926673472 edge_7_8_0_0 - 0.2835819564080936 edge_7_10_0_0
   - 0.2646975805690195 edge_7_11_0_0 + 0.022236122457721 edge_7_12_0_0
   + 0.6380870669999701 edge_8_1_0_0 + 0.3704663675387078 edge_8_2_0_0
   + 1.30997229685619 edge_8_3_0_0 + 1.224601960662342 edge_8_4_0_0
   + 1.120704526638487 edge_8_5_0_0 + 0.5031108168383112 edge_8_6_0_0
   + 1.046269831014779 edge_8_7_0_0 + 3.128172791477269 edge_8_10_0_0
   + 3.175807522868543 edge_8_11_0_0 + 2.096087233162105 edge_8_12_0_0
   - 1.105255877207098 edge_10_2_0_0 - 1.337280955858691 edge_10_3_0_0
   - 1.223920944407082 edge_10_4_0_0 - 0.3111112135463558 edge_10_5_0_0
   - 0.2847563085752938 edge_10_6_0_0 - 0.2381695445927912 edge_10_7_0_0
   + 0.2450744010077503 edge_10_8_0_0 + 0.0612288496829121 edge_10_11_0_0
   + 0.0862796027172566 edge_10_12_0_0 - 1.052913500707344 edge_11_1_0_0
   - 0.5533178901209319 edge_11_2_0_0 + 0.4136660192871234 edge_11_3_0_0
   - 0.2207251137253267 edge_11_4_0_0 - 0.0544122188811041 edge_11_5_0_0
   - 0.1323168643410348 edge_11_6_0_0 - 0.2065172941847404 edge_11_7_0_0
   + 0.718973106912242 edge_11_8_0_0 + 0.9528169028813666 edge_11_10_0_0
   + 0.76082615742208 edge_11_12_0_0 - 2.096008092946386 edge_12_4_0_0
   - 1.06006508419847 edge_12_5_0_0 - 0.6956246517545261 edge_12_6_0_0
   - 1.035834307269756 edge_12_7_0_0 - 0.5561768850740993 edge_12_8_0_0
   - 0.9249098805240165 edge_12_10_0_0 - 0.9588539644368659 edge_12_11_0_0
Subject To
 one_parent_1: edge_0_1_0_0 + edge_2_1_0_0 + edge_3_1_0_0 + edge_4_1_0_0
   + edge_6_1_0_0 + edge_7_1_0_0 + edge_8_1_0_0 + edge_11_1_0_0 = 1
 consume_one_flow_unit_1: flow_0_1_0_0 - flow_1_2_0_0 - flow_1_3_0_0
   - flow_1_4_0_0 - flow_1_5_0_0 - flow_1_6_0_0 - flow_1_7_0_0
   - flow_1_8_0_0 - flow_1_10_0_0 - flow_1_11_0_0 - flow_1_12_0_0
   + flow_2_1_0_0 + flow_3_1_0_0 + flow_4_1_0_0 + flow_6_1_0_0
   + flow_7_1_0_0 + flow_8_1_0_0 + flow_11_1_0_0 = 1
 one_parent_2: edge_0_2_0_0 + edge_1_2_0_0 + edge_3_2_0_0 + edge_4_2_0_0
   + edge_5_2_0_0 + edge_6_2_0_0 + edge_7_2_0_0 + edge_8_2_0_0
   + edge_10_2_0_0 + edge_11_2_0_0 = 1
 consume_one_flow_unit_2: flow_0_2_0_0 + flow_1_2_0_0 - flow_2_1_0_0
   - flow_2_3_0_0 - flow_2_4_0_0 - flow_2_5_0_0 - flow_2_6_0_0
   - flow_2_7_0_0 - flow_2_8_0_0 - flow_2_10_0_0 - flow_2_11_0_0
   - flow_2_12_0_0 + flow_3_2_0_0 + flow_4_2_0_0 + flow_5_2_0_0
   + flow_6_2_0_0 + flow_7_2_0_0 + flow_8_2_0_0 + flow_10_2_0_0
   + flow_11_2_0_0 = 1
 one_parent_3: edge_0_3_0_0 + edge_1_3_0_0 + edge_2_3_0_0 + edge_4_3_0_0
   + edge_5_3_0_0 + edge_6_3_0_0 + edge_7_3_0_0 + edge_8_3_0_0
   + edge_10_3_0_0 + edge_11_3_0_0 = 1
 consume_one_flow_unit_3: flow_0_3_0_0 + flow_1_3_0_0 + flow_2_3_0_0
   - flow_3_1_0_0 - flow_3_2_0_0 - flow_3_4_0_0 - flow_3_5_0_0
   - flow_3_6_0_0 - flow_3_7_0_0 - flow_3_8_0_0 - flow_3_10_0_0
   - flow_3_11_0_0 - flow_3_12_0_0 + flow_4_3_0_0 + flow_5_3_0_0
   + flow_6_3_0_0 + flow_7_3_0_0 + flow_8_3_0_0 + flow_10_3_0_0
   + flow_11_3_0_0 = 1
 one_parent_4: edge_0_4_0_0 + edge_1_4_0_0 + edge_2_4_0_0 + edge_3_4_0_0
   + edge_5_4_0_0 + edge_6_4_0_0 + edge_7_4_0_0 + edge_8_4_0_0
   + edge_10_4_0_0 + edge_11_4_0_0 + edge_12_4_0_0 = 1
 consume_one_flow_unit_4: flow_0_4_0_0 + flow_1_4_0_0 + flow_2_4_0_0
   + flow_3_4_0_0 - flow_4_1_0_0 - flow_4_2_0_0 - flow_4_3_0_0
   - flow_4_5_0_0 - flow_4_6_0_0 - flow_4_7_0_0 - flow_4_8_0_0
   - flow_4_10_0_0 - flow_4_11_0_0 - flow_4_12_0_0 + flow_5_4_0_0
   + flow_6_4_0_0 + flow_7_4_0_0 + flow_8_4_0_0 + flow_10_4_0_0
   + flow_11_4_0_0 + flow_12_4_0_0 = 1
 one_parent_5: edge_0_5_0_0 + edge_1_5_0_0 + edge_2_5_0_0 + edge_3_5_0_0
   + edge_4_5_0_0 + edge_6_5_0_0 + edge_7_5_0_0 + edge_8_5_0_0
   + edge_10_5_0_0 + edge_11_5_0_0 + edge_12_5_0_0 = 1
 consume_one_flow_unit_5: flow_0_5_0_0 + flow_1_5_0_0 + flow_2_5_0_0
   + flow_3_5_0_0 + flow_4_5_0_0 - flow_5_2_0_0 - flow_5_3_0_0
   - flow_5_4_0_0 - flow_5_6_0_0 - flow_5_7_0_0 - flow_5_8_0_0
   - flow_5_10_0_0 - flow_5_11_0_0 - flow_5_12_0_0 + flow_6_5_0_0
   + flow_7_5_0_0 + flow_8_5_0_0 + flow_10_5_0_0 + flow_11_5_0_0
   + flow_12_5_0_0 = 1
 one_parent_6: edge_0_6_0_0 + edge_1_6_0_0 + edge_2_6_0_0 + edge_3_6_0_0
   + edge_4_6_0_0 + edge_5_6_0_0 + edge_7_6_0_0 + edge_8_6_0_0
   + edge_10_6_0_0 + edge_11_6_0_0 + edge_12_6_0_0 = 1
 consume_one_flow_unit_6: flow_0_6_0_0 + flow_1_6_0_0 + flow_2_6_0_0
   + flow_3_6_0_0 + flow_4_6_0_0 + flow_5_6_0_0 - flow_6_1_0_0
   - flow_6_2_0_0 - flow_6_3_0_0 - flow_6_4_0_0 - flow_6_5_0_0
   - flow_6_7_0_0 - flow_6_8_0_0 - flow_6_10_0_0 - flow_6_11_0_0
   - flow_6_12_0_0 + flow_7_6_0_0 + flow_8_6_0_0 + flow_10_6_0_0
   + flow_11_6_0_0 + flow_12_6_0_0 = 1
 one_parent_7: edge_0_7_0_0 + edge_1_7_0_0 + edge_2_7_0_0 + edge_3_7_0_0
   + edge_4_7_0_0 + edge_5_7_0_0 + edge_6_7_0_0 + edge_8_7_0_0
   + edge_10_7_0_0 + edge_11_7_0_0 + edge_12_7_0_0 = 1
 consume_one_flow_unit_7: flow_0_7_0_0 + flow_1_7_0_0 + flow_2_7_0_0
   + flow_3_7_0_0 + flow_4_7_0_0 + flow_5_7_0_0 + flow_6_7_0_0
   - flow_7_1_0_0 - flow_7_2_0_0 - flow_7_3_0_0 - flow_7_4_0_0
   - flow_7_5_0_0 - flow_7_6_0_0 - flow_7_8_0_0 - flow_7_10_0_0
   - flow_7_11_0_0 - flow_7_12_0_0 + flow_8_7_0_0 + flow_10_7_0_0
   + flow_11_7_0_0 + flow_12_7_0_0 = 1
 one_parent_8: edge_0_8_0_0 + edge_1_8_0_0 + edge_2_8_0_0 + edge_3_8_0_0
   + edge_4_8_0_0 + edge_5_8_0_0 + edge_6_8_0_0 + edge_7_8_0_0
   + edge_10_8_0_0 + edge_11_8_0_0 + edge_12_8_0_0 = 1
 consume_one_flow_unit_8: flow_0_8_0_0 + flow_1_8_0_0 + flow_2_8_0_0
   + flow_3_8_0_0 + flow_4_8_0_0 + flow_5_8_0_0 + flow_6_8_0_0
   + flow_7_8_0_0 - flow_8_1_0_0 - flow_8_2_0_0 - flow_8_3_0_0
   - flow_8_4_0_0 - flow_8_5_0_0 - flow_8_6_0_0 - flow_8_7_0_0
   - flow_8_10_0_0 - flow_8_11_0_0 - flow_8_12_0_0 + flow_10_8_0_0
   + flow_11_8_0_0 + flow_12_8_0_0 = 1
 one_parent_9: = 1
 consume_one_flow_unit_9: = 1
 one_parent_10: edge_0_10_0_0 + edge_1_10_0_0 + edge_2_10_0_0
   + edge_3_10_0_0 + edge_4_10_0_0 + edge_5_10_0_0 + edge_6_10_0_0
   + edge_7_10_0_0 + edge_8_10_0_0 + edge_11_10_0_0 + edge_12_10_0_0 = 1
 consume_one_flow_unit_10: flow_0_10_0_0 + flow_1_10_0_0 + flow_2_10_0_0
   + flow_3_10_0_0 + flow_4_10_0_0 + flow_5_10_0_0 + flow_6_10_0_0
   + flow_7_10_0_0 + flow_8_10_0_0 - flow_10_2_0_0 - flow_10_3_0_0
   - flow_10_4_0_0 - flow_10_5_0_0 - flow_10_6_0_0 - flow_10_7_0_0
   - flow_10_8_0_0 - flow_10_11_0_0 - flow_10_12_0_0 + flow_11_10_0_0
   + flow_12_10_0_0 = 1
 one_parent_11: edge_0_11_0_0 + edge_1_11_0_0 + edge_2_11_0_0
   + edge_3_11_0_0 + edge_4_11_0_0 + edge_5_11_0_0 + edge_6_11_0_0
   + edge_7_11_0_0 + edge_8_11_0_0 + edge_10_11_0_0 + edge_12_11_0_0 = 1
 consume_one_flow_unit_11: flow_0_11_0_0 + flow_1_11_0_0 + flow_2_11_0_0
   + flow_3_11_0_0 + flow_4_11_0_0 + flow_5_11_0_0 + flow_6_11_0_0
   + flow_7_11_0_0 + flow_8_11_0_0 + flow_10_11_0_0 - flow_11_1_0_0
   - flow_11_2_0_0 - flow_11_3_0_0 - flow_11_4_0_0 - flow_11_5_0_0
   - flow_11_6_0_0 - flow_11_7_0_0 - flow_11_8_0_0 - flow_11_10_0_0
   - flow_11_12_0_0 + flow_12_11_0_0 = 1
 one_parent_12: edge_0_12_0_0 + edge_1_12_0_0 + edge_2_12_0_0
   + edge_3_12_0_0 + edge_4_12_0_0 + edge_5_12_0_0 + edge_6_12_0_0
   + edge_7_12_0_0 + edge_8_12_0_0 + edge_10_12_0_0 + edge_11_12_0_0 = 1
 consume_one_flow_unit_12: flow_0_12_0_0 + flow_1_12_0_0 + flow_2_12_0_0
   + flow_3_12_0_0 + flow_4_12_0_0 + flow_5_12_0_0 + flow_6_12_0_0
   + flow_7_12_0_0 + flow_8_12_0_0 + flow_10_12_0_0 + flow_11_12_0_0
   - flow_12_4_0_0 - flow_12_5_0_0 - flow_12_6_0_0 - flow_12_7_0_0
   - flow_12_8_0_0 - flow_12_10_0_0 - flow_12_11_0_0 = 1
 root_flow: flow_0_1_0_0 + flow_0_2_0_0 + flow_0_3_0_0 + flow_0_4_0_0
   + flow_0_5_0_0 + flow_0_6_0_0 + flow_0_7_0_0 + flow_0_8_0_0
   + flow_0_10_0_0 + flow_0_11_0_0 + flow_0_12_0_0 = 12
 inactive_no_flow_0_1_0_0: flow_0_1_0_0 - 1000 edge_0_1_0_0 <= 0
 inactive_no_flow_0_2_0_0: flow_0_2_0_0 - 1000 edge_0_2_0_0 <= 0
 inactive_no_flow_0_3_0_0: flow_0_3_0_0 - 1000 edge_0_3_0_0 <= 0
 inactive_no_flow_0_4_0_0: flow_0_4_0_0 - 1000 edge_0_4_0_0 <= 0
 inactive_no_flow_0_5_0_0: flow_0_5_0_0 - 1000 edge_0_5_0_0 <= 0
 inactive_no_flow_0_6_0_0: flow_0_6_0_0 - 1000 edge_0_6_0_0 <= 0
 inactive_no_flow_0_7_0_0: flow_0_7_0_0 - 1000 edge_0_7_0_0 <= 0
 inactive_no_flow_0_8_0_0: flow_0_8_0_0 - 1000 edge_0_8_0_0 <= 0
 inactive_no_flow_0_10_0_0: flow_0_10_0_0 - 1000 edge_0_10_0_0 <= 0
 inactive_no_flow_0_11_0_0: flow_0_11_0_0 - 1000 edge_0_11_0_0 <= 0
 inactive_no_flow_0_12_0_0: flow_0_12_0_0 - 1000 edge_0_12_0_0 <= 0
 inactive_no_flow_1_2_0_0: flow_1_2_0_0 - 1000 edge_1_2_0_0 <= 0
 inactive_no_flow_1_3_0_0: flow_1_3_0_0 - 1000 edge_1_3_0_0 <= 0
 inactive_no_flow_1_4_0_0: flow_1_4_0_0 - 1000 edge_1_4_0_0 <= 0
 inactive_no_flow_1_5_0_0: flow_1_5_0_0 - 1000 edge_1_5_0_0 <= 0
 inactive_no_flow_1_6_0_0: flow_1_6_0_0 - 1000 edge_1_6_0_0 <= 0
 inactive_no_flow_1_7_0_0: flow_1_7_0_0 - 1000 edge_1_7_0_0 <= 0
 inactive_no_flow_1_8_0_0: flow_1_8_0_0 - 1000 edge_1_8_0_0 <= 0
 inactive_no_flow_1_10_0_0: flow_1_10_0_0 - 1000 edge_1_10_0_0 <= 0
 inactive_no_flow_1_11_0_0: flow_1_11_0_0 - 1000 edge_1_11_0_0 <= 0
 inactive_no_flow_1_12_0_0: flow_1_12_0_0 - 1000 edge_1_12_0_0 <= 0
 inactive_no_flow_2_1_0_0: flow_2_1_0_0 - 1000 edge_2_1_0_0 <= 0
 inactive_no_flow_2_3_0_0: flow_2_3_0_0 - 1000 edge_2_3_0_0 <= 0
 inactive_no_flow_2_4_0_0: flow_2_4_0_0 - 1000 edge_2_4_0_0 <= 0
 inactive_no_flow_2_5_0_0: flow_2_5_0_0 - 1000 edge_2_5_0_0 <= 0
 inactive_no_flow_2_6_0_0: flow_2_6_0_0 - 1000 edge_2_6_0_0 <= 0
 inactive_no_flow_2_7_0_0: flow_2_7_0_0 - 1000 edge_2_7_0_0 <= 0
 inactive_no_flow_2_8_0_0: flow_2_8_0_0 - 1000 edge_2_8_0_0 <= 0
 inactive_no_flow_2_10_0_0: flow_2_10_0_0 - 1000 edge_2_10_0_0 <= 0
 inactive_no_flow_2_11_0_0: flow_2_11_0_0 - 1000 edge_2_11_0_0 <= 0
 inactive_no_flow_2_12_0_0: flow_2_12_0_0 - 1000 edge_2_12_0_0 <= 0
 inactive_no_flow_3_1_0_0: flow_3_1_0_0 - 1000 edge_3_1_0_0 <= 0
 inactive_no_flow_3_2_0_0: flow_3_2_0_0 - 1000 edge_3_2_0_0 <= 0
 inactive_no_flow_3_4_0_0: flow_3_4_0_0 - 1000 edge_3_4_0_0 <= 0
 inactive_no_flow_3_5_0_0: flow_3_5_0_0 - 1000 edge_3_5_0_0 <= 0
 inactive_no_flow_3_6_0_0: flow_3_6_0_0 - 1000 edge_3_6_0_0 <= 0
 inactive_no_flow_3_7_0_0: flow_3_7_0_0 - 1000 edge_3_7_0_0 <= 0
 inactive_no_flow_3_8_0_0: flow_3_8_0_0 - 1000 edge_3_8_0_0 <= 0
 inactive_no_flow_3_10_0_0: flow_3_10_0_0 - 1000 edge_3_10_0_0 <= 0
 inactive_no_flow_3_11_0_0: flow_3_11_0_0 - 1000 edge_3_11_0_0 <= 0
 inactive_no_flow_3_12_0_0: flow_3_12_0_0 - 1000 edge_3_12_0_0 <= 0
 inactive_no_flow_4_1_0_0: flow_4_1_0_0 - 1000 edge_4_1_0_0 <= 0
 inactive_no_flow_4_2_0_0: flow_4_2_0_0 - 1000 edge_4_2_0_0 <= 0
 inactive_no_flow_4_3_0_0: flow_4_3_0_0 - 1000 edge_4_3_0_0 <= 0
 inactive_no_flow_4_5_0_0: flow_4_5_0_0 - 1000 edge_4_5_0_0 <= 0
 inactive_no_flow_4_6_0_0: flow_4_6_0_0 - 1000 edge_4_6_0_0 <= 0
 inactive_no_flow_4_7_0_0: flow_4_7_0_0 - 1000 edge_4_7_0_0 <= 0
 inactive_no_flow_4_8_0_0: flow_4_8_0_0 - 1000 edge_4_8_0_0 <= 0
 inactive_no_flow_4_10_0_0: flow_4_10_0_0 - 1000 edge_4_10_0_0 <= 0
 inactive_no_flow_4_11_0_0: flow_4_11_0_0 - 1000 edge_4_11_0_0 <= 0
 inactive_no_flow_4_12_0_0: flow_4_12_0_0 - 1000 edge_4_12_0_0 <= 0
 inactive_no_flow_5_2_0_0: flow_5_2_0_0 - 1000 edge_5_2_0_0 <= 0
 inactive_no_flow_5_3_0_0: flow_5_3_0_0 - 1000 edge_5_3_0_0 <= 0
 inactive_no_flow_5_4_0_0: flow_5_4_0_0 - 1000 edge_5_4_0_0 <= 0
 inactive_no_flow_5_6_0_0: flow_5_6_0_0 - 1000 edge_5_6_0_0 <= 0
 inactive_no_flow_5_7_0_0: flow_5_7_0_0 - 1000 edge_5_7_0_0 <= 0
 inactive_no_flow_5_8_0_0: flow_5_8_0_0 - 1000 edge_5_8_0_0 <= 0
 inactive_no_flow_5_10_0_0: flow_5_10_0_0 - 1000 edge_5_10_0_0 <= 0
 inactive_no_flow_5_11_0_0: flow_5_11_0_0 - 1000 edge_5_11_0_0 <= 0
 inactive_no_flow_5_12_0_0: flow_5_12_0_0 - 1000 edge_5_12_0_0 <= 0
 inactive_no_flow_6_1_0_0: flow_6_1_0_0 - 1000 edge_6_1_0_0 <= 0
 inactive_no_flow_6_2_0_0: flow_6_2_0_0 - 1000 edge_6_2_0_0 <= 0
 inactive_no_flow_6_3_0_0: flow_6_3_0_0 - 1000 edge_6_3_0_0 <= 0
 inactive_no_flow_6_4_0_0: flow_6_4_0_0 - 1000 edge_6_4_0_0 <= 0
 inactive_no_flow_6_5_0_0: flow_6_5_0_0 - 1000 edge_6_5_0_0 <= 0
 inactive_no_flow_6_7_0_0: flow_6_7_0_0 - 1000 edge_6_7_0_0 <= 0
 inactive_no_flow_6_8_0_0: flow_6_8_0_0 - 1000 edge_6_8_0_0 <= 0
 inactive_no_flow_6_10_0_0: flow_6_10_0_0 - 1000 edge_6_10_0_0 <= 0
 inactive_no_flow_6_11_0_0: flow_6_11_0_0 - 1000 edge_6_11_0_0 <= 0
 inactive_no_flow_6_12_0_0: flow_6_12_0_0 - 1000 edge_6_12_0_0 <= 0
 inactive_no_flow_7_1_0_0: flow_7_1_0_0 - 1000 edge_7_1_0_0 <= 0
 inactive_no_flow_7_2_0_0: flow_7_2_0_0 - 1000 edge_7_2_0_0 <= 0
 inactive_no_flow_7_3_0_0: flow_7_3_0_0 - 1000 edge_7_3_0_0 <= 0
 inactive_no_flow_7_4_0_0: flow_7_4_0_0 - 1000 edge_7_4_0_0 <= 0
 inactive_no_flow_7_5_0_0: flow_7_5_0_0 - 1000 edge_7_5_0_0 <= 0
 inactive_no_flow_7_6_0_0: flow_7_6_0_0 - 1000 edge_7_6_0_0 <= 0
 inactive_no_flow_7_8_0_0: flow_7_8_0_0 - 1000 edge_7_8_0_0 <= 0
 inactive_no_flow_7_10_0_0: flow_7_10_0_0 - 1000 edge_7_10_0_0 <= 0
 inactive_no_flow_7_11_0_0: flow_7_11_0_0 - 1000 edge_7_11_0_0 <= 0
 inactive_no_flow_7_12_0_0: flow_7_12_0_0 - 1000 edge_7_12_0_0 <= 0
 inactive_no_flow_8_1_0_0: flow_8_1_0_0 - 1000 edge_8_1_0_0 <= 0
 inactive_no_flow_8_2_0_0: flow_8_2_0_0 - 1000 edge_8_2_0_0 <= 0
 inactive_no_flow_8_3_0_0: flow_8_3_0_0 - 1000 edge_8_3_0_0 <= 0
 inactive_no_flow_8_4_0_0: flow_8_4_0_0 - 1000 edge_8_4_0_0 <= 0
 inactive_no_flow_8_5_0_0: flow_8_5_0_0 - 1000 edge_8_5_0_0 <= 0
 inactive_no_flow_8_6_0_0: flow_8_6_0_0 - 1000 edge_8_6_0_0 <= 0
 inactive_no_flow_8_7_0_0: flow_8_7_0_0 - 1000 edge_8_7_0_0 <= 0
 inactive_no_flow_8_10_0_0: flow_8_10_0_0 - 1000 edge_8_10_0_0 <= 0
 inactive_no_flow_8_11_0_0: flow_8_11_0_0 - 1000 edge_8_11_0_0 <= 0
 inactive_no_flow_8_12_0_0: flow_8_12_0_0 - 1000 edge_8_12_0_0 <= 0
 inactive_no_flow_10_2_0_0: flow_10_2_0_0 - 1000 edge_10_2_0_0 <= 0
 inactive_no_flow_10_3_0_0: flow_10_3_0_0 - 1000 edge_10_3_0_0 <= 0
 inactive_no_flow_10_4_0_0: flow_10_4_0_0 - 1000 edge_10_4_0_0 <= 0
 inactive_no_flow_10_5_0_0: flow_10_5_0_0 - 1000 edge_10_5_0_0 <= 0
 inactive_no_flow_10_6_0_0: flow_10_6_0_0 - 1000 edge_10_6_0_0 <= 0
 inactive_no_flow_10_7_0_0: flow_10_7_0_0 - 1000 edge_10_7_0_0 <= 0
 inactive_no_flow_10_8_0_0: flow_10_8_0_0 - 1000 edge_10_8_0_0 <= 0
 inactive_no_flow_10_11_0_0: flow_10_11_0_0 - 1000 edge_10_11_0_0 <= 0
 inactive_no_flow_10_12_0_0: flow_10_12_0_0 - 1000 edge_10_12_0_0 <= 0
 inactive_no_flow_11_1_0_0: flow_11_1_0_0 - 1000 edge_11_1_0_0 <= 0
 inactive_no_flow_11_2_0_0: flow_11_2_0_0 - 1000 edge_11_2_0_0 <= 0
 inactive_no_flow_11_3_0_0: flow_11_3_0_0 - 1000 edge_11_3_0_0 <= 0
 inactive_no_flow_11_4_0_0: flow_11_4_0_0 - 1000 edge_11_4_0_0 <= 0
 inactive_no_flow_11_5_0_0: flow_11_5_0_0 - 1000 edge_11_5_0_0 <= 0
 inactive_no_flow_11_6_0_0: flow_11_6_0_0 - 1000 edge_11_6_0_0 <= 0
 inactive_no_flow_11_7_0_0: flow_11_7_0_0 - 1000 edge_11_7_0_0 <= 0
 inactive_no_flow_11_8_0_0: flow_11_8_0_0 - 1000 edge_11_8_0_0 <= 0
 inactive_no_flow_11_10_0_0: flow_11_10_0_0 - 1000 edge_11_10_0_0 <= 0
 inactive_no_flow_11_12_0_0: flow_11_12_0_0 - 1000 edge_11_12_0_0 <= 0
 inactive_no_flow_12_4_0_0: flow_12_4_0_0 - 1000 edge_12_4_0_0 <= 0
 inactive_no_flow_12_5_0_0: flow_12_5_0_0 - 1000 edge_12_5_0_0 <= 0
 inactive_no_flow_12_6_0_0: flow_12_6_0_0 - 1000 edge_12_6_0_0 <= 0
 inactive_no_flow_12_7_0_0: flow_12_7_0_0 - 1000 edge_12_7_0_0 <= 0
 inactive_no_flow_12_8_0_0: flow_12_8_0_0 - 1000 edge_12_8_0_0 <= 0
 inactive_no_flow_12_10_0_0: flow_12_10_0_0 - 1000 edge_12_10_0_0 <= 0
 inactive_no_flow_12_11_0_0: flow_12_11_0_0 - 1000 edge_12_11_0_0 <= 0
Bounds
Binaries
 edge_0_1_0_0 edge_0_2_0_0 edge_0_3_0_0 edge_0_4_0_0 edge_0_5_0_0
 edge_0_6_0_0 edge_0_7_0_0 edge_0_8_0_0 edge_0_10_0_0 edge_0_11_0_0
 edge_0_12_0_0 edge_1_2_0_0 edge_1_3_0_0 edge_1_4_0_0 edge_1_5_0_0
 edge_1_6_0_0 edge_1_7_0_0 edge_1_8_0_0 edge_1_10_0_0 edge_1_11_0_0
 edge_1_12_0_0 edge_2_1_0_0 edge_2_3_0_0 edge_2_4_0_0 edge_2_5_0_0
 edge_2_6_0_0 edge_2_7_0_0 edge_2_8_0_0 edge_2_10_0_0 edge_2_11_0_0
 edge_2_12_0_0 edge_3_1_0_0 edge_3_2_0_0 edge_3_4_0_0 edge_3_5_0_0
 edge_3_6_0_0 edge_3_7_0_0 edge_3_8_0_0 edge_3_10_0_0 edge_3_11_0_0
 edge_3_12_0_0 edge_4_1_0_0 edge_4_2_0_0 edge_4_3_0_0 edge_4_5_0_0
 edge_4_6_0_0 edge_4_7_0_0 edge_4_8_0_0 edge_4_10_0_0 edge_4_11_0_0
 edge_4_12_0_0 edge_5_2_0_0 edge_5_3_0_0 edge_5_4_0_0 edge_5_6_0_0
 edge_5_7_0_0 edge_5_8_0_0 edge_5_10_0_0 edge_5_11_0_0 edge_5_12_0_0
 edge_6_1_0_0 edge_6_2_0_0 edge_6_3_0_0 edge_6_4_0_0 edge_6_5_0_0
 edge_6_7_0_0 edge_6_8_0_0 edge_6_10_0_0 edge_6_11_0_0 edge_6_12_0_0
 edge_7_1_0_0 edge_7_2_0_0 edge_7_3_0_0 edge_7_4_0_0 edge_7_5_0_0
 edge_7_6_0_0 edge_7_8_0_0 edge_7_10_0_0 edge_7_11_0_0 edge_7_12_0_0
 edge_8_1_0_0 edge_8_2_0_0 edge_8_3_0_0 edge_8_4_0_0 edge_8_5_0_0
 edge_8_6_0_0 edge_8_7_0_0 edge_8_10_0_0 edge_8_11_0_0 edge_8_12_0_0
 edge_10_2_0_0 edge_10_3_0_0 edge_10_4_0_0 edge_10_5_0_0 edge_10_6_0_0
 edge_10_7_0_0 edge_10_8_0_0 edge_10_11_0_0 edge_10_12_0_0 edge_11_1_0_0
 edge_11_2_0_0 edge_11_3_0_0 edge_11_4_0_0 edge_11_5_0_0 edge_11_6_0_0
 edge_11_7_0_0 edge_11_8_0_0 edge_11_10_0_0 edge_11_12_0_0 edge_12_4_0_0
 edge_12_5_0_0 edge_12_6_0_0 edge_12_7_0_0 edge_12_8_0_0 edge_12_10_0_0
 edge_12_11_0_0
End
